100
75 43 46 11 53 73 93 40 36 16 80 38 34 91 44 24 56 55 22 82 8 87 57 23 66 95 88 42 39 54 84 6 15 72 59 79 58 21 92 26 90 85 64 4 47 3 7 68 28 70 65 5 17 20 12 69 94 30 35 32 27 45 67 61 89 50 62 78 31 74 52 37 76 77 81 10 19 83 29 2 98 33 51 18 41 13 49 99 71 48 86 97 96 9 63 25 14 60 
